% demand
num_movements = 30;
loading_factor = [850, 1450, 1500, 1800, 1350, 1600, 1000, 1400, 800, 1350, 850, 1400, 850, 850, 950, 1100, 1400, 900, 800, 1000, 1550, 1500, 1050, 1550, 1300, 1400, 1200, 1050, 1700, 1650];
pickup_time = [0, 0, 0, 0, 0, 1, 1, 1, 1, 1, 1, 3, 3, 3, 3, 3, 3, 4, 4, 5, 5, 5, 5, 5, 7, 8, 8, 8, 8, 8];
delivery_time = [1, 1, 1, 1, 1, 3, 3, 3, 3, 3, 3, 4, 5, 4, 4, 4, 4, 5, 5, 8, 7, 8, 7, 8, 8, 10, 11, 10, 10, 11];

% transporter definition
total_capacity = 7000;
num_decks = 3;
capacity = [3000, 1000, 3000];

% ways out of decks
num_ways_out = 1;
paths_out = array3d(decks, ways_out, decks, [
% ways out of deck d1
2, 3, 0, 

% ways out of deck d2
3, 0, 0, 

% ways out of deck d3
0, 0, 0,	

]);

